WARNING: for repeatability, setting FPU to use double precision
============================[ Problem Statistics ]=============================
|                                                                             |
|  Number of variables:        234896                                         |
|  Number of clauses:          746660                                         |
|  Parse time:                   0.22 s                                       |
|                                                                             |
c ============================[ Search Statistics ]==============================
c | Conflicts |          ORIGINAL         |          LEARNT          | Progress |
c |           |    Vars  Clauses Literals |    Limit  Clauses Lit/Cl |          |
c ===============================================================================
We had 55 decisions of which only 0 were on extended
We had 5442679 decisions of which only 0 were on extended
c Switched to VSIDS.
c Switched to LRB.
c Switched to VSIDS.
We had 12959713 decisions of which only 0 were on extended
c Switched to LRB.
We had 21354766 decisions of which only 0 were on extended
c Switched to VSIDS.
c Switched to LRB.
We had 32850659 decisions of which only 0 were on extended
c Switched to VSIDS.
We had 44110480 decisions of which only 0 were on extended
c Switched to LRB.
We had 44338009 decisions of which only 0 were on extended
We had 44508328 decisions of which only 0 were on extended
We had 44606053 decisions of which only 0 were on extended
We had 44838908 decisions of which only 0 were on extended
We had 45099339 decisions of which only 0 were on extended
c Switched to VSIDS.
We had 45244984 decisions of which only 0 were on extended
We had 45466274 decisions of which only 0 were on extended
We had 45488615 decisions of which only 0 were on extended
We had 45643785 decisions of which only 0 were on extended
We had 45743577 decisions of which only 0 were on extended
We had 45821433 decisions of which only 0 were on extended
We had 45945935 decisions of which only 0 were on extended
We had 46032054 decisions of which only 0 were on extended
Window full
Deactivate
We had 46113809 decisions of which only 0 were on extended
c Switched to LRB.
We had 46304766 decisions of which only 0 were on extended
We had 46328193 decisions of which only 0 were on extended
We had 46490665 decisions of which only 0 were on extended
We had 46562204 decisions of which only 0 were on extended
We had 46621131 decisions of which only 0 were on extended
We had 46690068 decisions of which only 0 were on extended
We had 46796153 decisions of which only 0 were on extended
We had 46858467 decisions of which only 0 were on extended
We had 46917828 decisions of which only 0 were on extended
c Switched to VSIDS.
We had 46968180 decisions of which only 0 were on extended
We had 47057388 decisions of which only 0 were on extended
We had 47126831 decisions of which only 0 were on extended
We had 47184098 decisions of which only 0 were on extended
We had 47241166 decisions of which only 0 were on extended
We had 47284409 decisions of which only 0 were on extended
We had 47379772 decisions of which only 0 were on extended
We had 47485176 decisions of which only 0 were on extended
We had 47543110 decisions of which only 0 were on extended
c Switched to LRB.
We had 47646428 decisions of which only 0 were on extended
We had 47802417 decisions of which only 0 were on extended
We had 47899653 decisions of which only 0 were on extended
We had 47940290 decisions of which only 0 were on extended
We had 48023808 decisions of which only 0 were on extended
We had 48076246 decisions of which only 0 were on extended
We had 48135702 decisions of which only 0 were on extended
We had 48192411 decisions of which only 0 were on extended
We had 48242580 decisions of which only 0 were on extended
c Switched to VSIDS.
We had 48291094 decisions of which only 0 were on extended
We had 48349980 decisions of which only 0 were on extended
We had 48396537 decisions of which only 0 were on extended
We had 48450550 decisions of which only 0 were on extended
We had 48492521 decisions of which only 0 were on extended
We had 48545011 decisions of which only 0 were on extended
We had 48602853 decisions of which only 0 were on extended
We had 48668350 decisions of which only 0 were on extended
We had 48721226 decisions of which only 0 were on extended
We had 48796747 decisions of which only 0 were on extended
We had 48860943 decisions of which only 0 were on extended
c Switched to LRB.
We had 48923100 decisions of which only 0 were on extended
We had 48957867 decisions of which only 0 were on extended
We had 49014095 decisions of which only 0 were on extended
We had 49071964 decisions of which only 0 were on extended
c ===============================================================================
restarts                  : 2368
conflicts                 : 613555         (1722 /sec)
decisions                 : 49154782       (0.00 % random) (137969 /sec)
propagations              : 935444667      (2625640 /sec)
conflict literals         : 14031650       (20.37 % deleted)

conflicts w/ DIP found    : 168356         (27.44 % of conflicts)
conflicts w/ dangerous DIP: 0              (0.00 % of conflicts)
conflicts w/ DIP-learning : 3              (0.00 % of conflicts)
decisions on ext vars     : 0              (0.00 % of decisions)
total ext vars            : 3           
tried delete ext vars     : 0           
deleted ext vars          : 0           
max ext vars              : 3           

Memory used               : 269.00 MB
CPU time                  : 356.273 s
DIP computation time      : 2.42783 s (0.68 % of total time)
ER_sel time               : 0.880352 s
ER_add time               : 0.000118 s
ER_delC time              : 0 s
ER_delV time              : 0 s
ER_sub time               : 0.26749 s
ER_stat time              : 0 s

SATISFIABLE
